--------------------------------------------------------------------------------(Solver execution current time: 0.00021791458129882812)
[INFO] Input Seed : 4571671
--------------------------------------------------------------------------------(Solver execution current time: 0.00027751922607421875)
[INFO] Input time limit : 30
--------------------------------------------------------------------------------(Solver execution current time: 0.00031638145446777344)
[INFO] Command line arguments read with no errors.
--------------------------------------------------------------------------------(Solver execution current time: 0.058353424072265625)
[INFO] Input file read with no errors.
--------------------------------------------------------------------------------(Solver execution current time: 0.05845236778259277)
[INFO] Starting solver.
--------------------------------------------------------------------------------(Solver execution current time: 0.058496713638305664)
[INFO] Starting construction
--------------------------------------------------------------------------------(Solver execution current time: 14.132311820983887)
[INFO] Finished construction
--------------------------------------------------------------------------------(Solver execution current time: 14.132412195205688)
[SOLUTION]
Basic Greedy Heuristic
Exec Time: 14.073814630508423
obj_value: -87; obj_routes: 32687.0
Route 1 : 30 62 69 91 77 22 130 191 51 177 162 1 23 123 12 101 41 122 58 88 52 112 17 158 141 169 188 78 151 49 178 117 152 149 37 137 73 173 21 121 
Route 2 : 44 80 180 75 59 159 144 14 175 114 56 46 92 146 72 13 192 156 6 106 84 16 172 116 184 65 113 60 160 165 
Route 3 : 68 168 3 95 195 81 34 103 181 27 127 134 10 110 83 96 196 66 43 143 166 183 
Route 4 : 53 57 157 19 82 119 9 153 87 64 20 120 109 63 182 70 164 187 170 163 
Route 5 : 100 200 97 197 29 129 47 39 139 42 18 118 40 55 147 89 189 155 140 142 28 128 
Route 6 : 45 79 145 85 179 185 98 198 32 132 67 71 48 167 148 171 74 174 
Route 7 : 99 199 11 111 26 15 126 115 
Route 8 : 86 90 190 186 35 38 135 54 154 138 
Route 9 : 4 36 104 136 
Route 10 : 
Route 11 : 
Route 12 : 
Route 13 : 
Route 14 : 
Route 15 : 
Route 16 : 
Route 17 : 
Route 18 : 
Route 19 : 
Route 20 : 
Route 21 : 

--------------------------------------------------------------------------------(Solver execution current time: 14.13434886932373)
[SOLUTION]
Solution after BasicGreedyLimitedHeterogeneousFleet
obj_value: -87; obj_routes: 32687.0
Route 1 : 30 62 69 91 77 22 130 191 51 177 162 1 23 123 12 101 41 122 58 88 52 112 17 158 141 169 188 78 151 49 178 117 152 149 37 137 73 173 21 121 
Route 2 : 44 80 180 75 59 159 144 14 175 114 56 46 92 146 72 13 192 156 6 106 84 16 172 116 184 65 113 60 160 165 
Route 3 : 68 168 3 95 195 81 34 103 181 27 127 134 10 110 83 96 196 66 43 143 166 183 
Route 4 : 53 57 157 19 82 119 9 153 87 64 20 120 109 63 182 70 164 187 170 163 
Route 5 : 100 200 97 197 29 129 47 39 139 42 18 118 40 55 147 89 189 155 140 142 28 128 
Route 6 : 45 79 145 85 179 185 98 198 32 132 67 71 48 167 148 171 74 174 
Route 7 : 99 199 11 111 26 15 126 115 
Route 8 : 86 90 190 186 35 38 135 54 154 138 
Route 9 : 4 36 104 136 
Route 10 : 
Route 11 : 
Route 12 : 
Route 13 : 
Route 14 : 
Route 15 : 
Route 16 : 
Route 17 : 
Route 18 : 
Route 19 : 
Route 20 : 
Route 21 : 

--------------------------------------------------------------------------------(Solver execution current time: 14.134592056274414)
[INFO] Starting metaheuristic
--------------------------------------------------------------------------------(Solver execution current time: 14.13756775856018)
[INFO] AGES EXCLUDED
--------------------------------------------------------------------------------(Solver execution current time: 14.139246225357056)
[INFO] Starting LNS
--------------------------------------------------------------------------------(Solver execution current time: 16.01170563697815)
[SOLUTION]
LNS
IT: 40
Exec Time: 1.8701682090759277
obj_value: -87; obj_routes: 32687.0
Route 1 : 30 62 69 91 77 22 130 191 51 177 162 1 23 123 12 101 41 122 58 88 52 112 17 158 141 169 188 78 151 49 178 117 152 149 37 137 73 173 21 121 
Route 2 : 44 80 180 75 59 159 144 14 175 114 56 46 92 146 72 13 192 156 6 106 84 16 172 116 184 65 113 60 160 165 
Route 3 : 68 168 3 95 195 81 34 103 181 27 127 134 10 110 83 96 196 66 43 143 166 183 
Route 4 : 53 57 157 19 82 119 9 153 87 64 20 120 109 63 182 70 164 187 170 163 
Route 5 : 100 200 97 197 29 129 47 39 139 42 18 118 40 55 147 89 189 155 140 142 28 128 
Route 6 : 45 79 145 85 179 185 98 198 32 132 67 71 48 167 148 171 74 174 
Route 7 : 99 199 11 111 26 15 126 115 
Route 8 : 86 90 190 186 35 38 135 54 154 138 
Route 9 : 4 36 104 136 
Route 10 : 
Route 11 : 
Route 12 : 
Route 13 : 
Route 14 : 
Route 15 : 
Route 16 : 
Route 17 : 
Route 18 : 
Route 19 : 
Route 20 : 
Route 21 : 

--------------------------------------------------------------------------------(Solver execution current time: 16.01384973526001)
[INFO] Starting PartitionMaxRequestsHF
--------------------------------------------------------------------------------(Solver execution current time: 16.069824695587158)
[SOLUTION]
PartitionMaxRequestsHF
Exec Time: 0.055918216705322266
obj_value: -87; obj_routes: 32687.0
Route 1 : 30 62 69 91 77 22 130 191 51 177 162 1 23 123 12 101 41 122 58 88 52 112 17 158 141 169 188 78 151 49 178 117 152 149 37 137 73 173 21 121 
Route 2 : 44 80 180 75 59 159 144 14 175 114 56 46 92 146 72 13 192 156 6 106 84 16 172 116 184 65 113 60 160 165 
Route 3 : 68 168 3 95 195 81 34 103 181 27 127 134 10 110 83 96 196 66 43 143 166 183 
Route 4 : 53 57 157 19 82 119 9 153 87 64 20 120 109 63 182 70 164 187 170 163 
Route 5 : 100 200 97 197 29 129 47 39 139 42 18 118 40 55 147 89 189 155 140 142 28 128 
Route 6 : 45 79 145 85 179 185 98 198 32 132 67 71 48 167 148 171 74 174 
Route 7 : 99 199 11 111 26 15 126 115 
Route 8 : 86 90 190 186 35 38 135 54 154 138 
Route 9 : 4 36 104 136 
Route 10 : 
Route 11 : 
Route 12 : 
Route 13 : 
Route 14 : 
Route 15 : 
Route 16 : 
Route 17 : 
Route 18 : 
Route 19 : 
Route 20 : 
Route 21 : 

--------------------------------------------------------------------------------(Solver execution current time: 16.071927785873413)
[INFO] Starting OriginalPerturbation
--------------------------------------------------------------------------------(Solver execution current time: 21.26251721382141)
[SOLUTION]
Original Perturbation
Exec Time: 5.192267656326294
obj_value: -87; obj_routes: 35389.0
Route 1 : 30 62 69 91 77 22 130 191 51 177 162 1 23 123 12 101 41 122 58 88 52 112 17 158 141 169 188 78 151 49 178 117 152 149 37 137 73 173 
Route 2 : 44 80 180 75 59 159 144 14 175 114 56 46 92 146 72 13 192 156 6 106 84 16 172 116 184 65 113 60 160 165 
Route 3 : 68 168 3 95 195 81 34 103 181 27 127 134 10 110 83 96 196 66 43 143 166 183 
Route 4 : 53 57 157 19 82 119 9 153 87 64 20 120 109 63 182 70 164 187 170 163 
Route 5 : 100 200 97 197 29 129 47 39 139 42 18 118 40 55 147 89 189 155 140 142 28 128 
Route 6 : 45 79 145 85 179 185 32 132 74 174 
Route 7 : 11 111 15 115 
Route 8 : 99 199 86 90 48 190 186 148 
Route 9 : 98 4 198 104 
Route 10 : 38 138 67 167 
Route 11 : 26 126 
Route 12 : 35 135 
Route 13 : 21 121 71 171 54 154 
Route 14 : 36 136 
Route 15 : 
Route 16 : 
Route 17 : 
Route 18 : 
Route 19 : 
Route 20 : 
Route 21 : 

--------------------------------------------------------------------------------(Solver execution current time: 21.266769647598267)
[SOLUTION]
SBMath
IT: 1
ITs witout improving: 1
IT time: 7.129197597503662
Time since begin: 7.130198001861572
obj_value: -87; obj_routes: 35389.0
Route 1 : 30 62 69 91 77 22 130 191 51 177 162 1 23 123 12 101 41 122 58 88 52 112 17 158 141 169 188 78 151 49 178 117 152 149 37 137 73 173 
Route 2 : 44 80 180 75 59 159 144 14 175 114 56 46 92 146 72 13 192 156 6 106 84 16 172 116 184 65 113 60 160 165 
Route 3 : 68 168 3 95 195 81 34 103 181 27 127 134 10 110 83 96 196 66 43 143 166 183 
Route 4 : 53 57 157 19 82 119 9 153 87 64 20 120 109 63 182 70 164 187 170 163 
Route 5 : 100 200 97 197 29 129 47 39 139 42 18 118 40 55 147 89 189 155 140 142 28 128 
Route 6 : 45 79 145 85 179 185 32 132 74 174 
Route 7 : 11 111 15 115 
Route 8 : 99 199 86 90 48 190 186 148 
Route 9 : 98 4 198 104 
Route 10 : 38 138 67 167 
Route 11 : 26 126 
Route 12 : 35 135 
Route 13 : 21 121 71 171 54 154 
Route 14 : 36 136 
Route 15 : 
Route 16 : 
Route 17 : 
Route 18 : 
Route 19 : 
Route 20 : 
Route 21 : 

--------------------------------------------------------------------------------(Solver execution current time: 21.26733160018921)
[SOLUTION]
SBMath
IT: 1
ITs witout improving: 1
IT time: 7.129197597503662
Time since begin: 7.130198001861572
obj_value: -87; obj_routes: 32219.0
Route 1 : 30 62 69 91 77 22 130 191 51 177 162 1 23 123 12 101 41 122 58 88 52 112 17 158 141 169 188 78 151 49 178 117 152 149 37 137 73 173 21 121 
Route 2 : 44 80 180 75 59 159 144 14 175 114 56 46 92 146 72 13 192 156 6 106 84 16 172 116 184 65 113 60 160 165 
Route 3 : 68 168 3 95 195 81 34 103 181 27 127 134 10 110 83 96 196 66 43 143 166 183 
Route 4 : 53 57 157 19 82 119 9 153 87 64 20 120 109 63 182 70 164 187 170 163 
Route 5 : 100 200 97 197 29 129 47 39 139 42 18 118 40 55 147 89 189 155 140 142 28 128 
Route 6 : 45 79 145 85 179 185 4 104 32 132 67 71 48 167 148 171 74 174 
Route 7 : 99 199 11 111 26 15 126 115 
Route 8 : 86 90 190 186 35 38 135 54 154 138 
Route 9 : 98 36 198 136 
Route 10 : 
Route 11 : 
Route 12 : 
Route 13 : 
Route 14 : 
Route 15 : 
Route 16 : 
Route 17 : 
Route 18 : 
Route 19 : 
Route 20 : 
Route 21 : 

--------------------------------------------------------------------------------(Solver execution current time: 21.26788020133972)
[INFO] AGES EXCLUDED
--------------------------------------------------------------------------------(Solver execution current time: 21.274948835372925)
[INFO] Starting LNS
--------------------------------------------------------------------------------(Solver execution current time: 23.033742666244507)
[SOLUTION]
LNS
IT: 40
Exec Time: 1.7535362243652344
obj_value: -87; obj_routes: 35389.0
Route 1 : 30 62 69 91 77 22 130 191 51 177 162 1 23 123 12 101 41 122 58 88 52 112 17 158 141 169 188 78 151 49 178 117 152 149 37 137 73 173 
Route 2 : 44 80 180 75 59 159 144 14 175 114 56 46 92 146 72 13 192 156 6 106 84 16 172 116 184 65 113 60 160 165 
Route 3 : 68 168 3 95 195 81 34 103 181 27 127 134 10 110 83 96 196 66 43 143 166 183 
Route 4 : 53 57 157 19 82 119 9 153 87 64 20 120 109 63 182 70 164 187 170 163 
Route 5 : 100 200 97 197 29 129 47 39 139 42 18 118 40 55 147 89 189 155 140 142 28 128 
Route 6 : 45 79 145 85 179 185 32 132 74 174 
Route 7 : 11 111 15 115 
Route 8 : 99 199 86 90 48 190 186 148 
Route 9 : 98 4 198 104 
Route 10 : 38 138 67 167 
Route 11 : 26 126 
Route 12 : 35 135 
Route 13 : 21 121 71 171 54 154 
Route 14 : 36 136 
Route 15 : 
Route 16 : 
Route 17 : 
Route 18 : 
Route 19 : 
Route 20 : 
Route 21 : 

--------------------------------------------------------------------------------(Solver execution current time: 23.037590742111206)
[INFO] Starting PartitionMaxRequestsHF
--------------------------------------------------------------------------------(Solver execution current time: 23.08893322944641)
[SOLUTION]
PartitionMaxRequestsHF
Exec Time: 0.05122685432434082
obj_value: -87; obj_routes: 35389.0
Route 1 : 44 80 180 75 59 159 144 14 175 114 56 46 92 146 72 13 192 156 6 106 84 16 172 116 184 65 113 60 160 165 
Route 2 : 68 168 3 95 195 81 34 103 181 27 127 134 10 110 83 96 196 66 43 143 166 183 
Route 3 : 53 57 157 19 82 119 9 153 87 64 20 120 109 63 182 70 164 187 170 163 
Route 4 : 100 200 97 197 29 129 47 39 139 42 18 118 40 55 147 89 189 155 140 142 28 128 
Route 5 : 30 62 69 91 77 22 130 191 51 177 162 1 23 123 12 101 41 122 58 88 52 112 17 158 141 169 188 78 151 49 178 117 152 149 37 137 73 173 
Route 6 : 45 79 145 85 179 185 32 132 74 174 
Route 7 : 11 111 15 115 
Route 8 : 99 199 86 90 48 190 186 148 
Route 9 : 98 4 198 104 
Route 10 : 38 138 67 167 
Route 11 : 26 126 
Route 12 : 35 135 
Route 13 : 21 121 71 171 54 154 
Route 14 : 36 136 
Route 15 : 
Route 16 : 
Route 17 : 
Route 18 : 
Route 19 : 
Route 20 : 
Route 21 : 

--------------------------------------------------------------------------------(Solver execution current time: 23.09118413925171)
[INFO] Starting OriginalPerturbation
--------------------------------------------------------------------------------(Solver execution current time: 25.994883060455322)
[SOLUTION]
Original Perturbation
Exec Time: 2.9054300785064697
obj_value: -87; obj_routes: 34624.0
Route 1 : 30 62 69 91 77 22 130 191 51 177 162 1 23 123 12 101 41 122 58 88 52 112 17 158 141 169 188 78 151 49 178 117 152 149 37 137 73 173 
Route 2 : 44 80 180 75 59 159 144 14 175 114 56 46 92 146 72 13 192 156 6 106 84 16 172 116 184 65 113 60 160 165 
Route 3 : 68 168 3 95 195 81 34 103 181 27 127 134 10 110 83 96 196 66 43 143 166 183 
Route 4 : 53 57 157 19 82 119 9 153 87 64 20 120 109 63 182 70 164 187 170 163 
Route 5 : 100 200 97 197 29 129 47 39 139 42 18 118 40 55 147 89 189 155 140 142 
Route 6 : 45 79 145 85 179 185 4 104 
Route 7 : 32 132 
Route 8 : 99 199 11 21 121 111 
Route 9 : 15 115 
Route 10 : 35 38 138 135 54 154 
Route 11 : 28 98 36 198 128 136 67 167 
Route 12 : 48 148 
Route 13 : 90 190 71 74 174 171 
Route 14 : 86 26 186 126 
Route 15 : 
Route 16 : 
Route 17 : 
Route 18 : 
Route 19 : 
Route 20 : 
Route 21 : 

--------------------------------------------------------------------------------(Solver execution current time: 25.996922492980957)
[SOLUTION]
SBMath
IT: 2
ITs witout improving: 2
IT time: 4.729058504104614
Time since begin: 11.860353946685791
obj_value: -87; obj_routes: 34624.0
Route 1 : 30 62 69 91 77 22 130 191 51 177 162 1 23 123 12 101 41 122 58 88 52 112 17 158 141 169 188 78 151 49 178 117 152 149 37 137 73 173 
Route 2 : 44 80 180 75 59 159 144 14 175 114 56 46 92 146 72 13 192 156 6 106 84 16 172 116 184 65 113 60 160 165 
Route 3 : 68 168 3 95 195 81 34 103 181 27 127 134 10 110 83 96 196 66 43 143 166 183 
Route 4 : 53 57 157 19 82 119 9 153 87 64 20 120 109 63 182 70 164 187 170 163 
Route 5 : 100 200 97 197 29 129 47 39 139 42 18 118 40 55 147 89 189 155 140 142 
Route 6 : 45 79 145 85 179 185 4 104 
Route 7 : 32 132 
Route 8 : 99 199 11 21 121 111 
Route 9 : 15 115 
Route 10 : 35 38 138 135 54 154 
Route 11 : 28 98 36 198 128 136 67 167 
Route 12 : 48 148 
Route 13 : 90 190 71 74 174 171 
Route 14 : 86 26 186 126 
Route 15 : 
Route 16 : 
Route 17 : 
Route 18 : 
Route 19 : 
Route 20 : 
Route 21 : 

--------------------------------------------------------------------------------(Solver execution current time: 25.99717664718628)
[SOLUTION]
SBMath
IT: 2
ITs witout improving: 2
IT time: 4.729058504104614
Time since begin: 11.860353946685791
obj_value: -87; obj_routes: 32219.0
Route 1 : 30 62 69 91 77 22 130 191 51 177 162 1 23 123 12 101 41 122 58 88 52 112 17 158 141 169 188 78 151 49 178 117 152 149 37 137 73 173 21 121 
Route 2 : 44 80 180 75 59 159 144 14 175 114 56 46 92 146 72 13 192 156 6 106 84 16 172 116 184 65 113 60 160 165 
Route 3 : 68 168 3 95 195 81 34 103 181 27 127 134 10 110 83 96 196 66 43 143 166 183 
Route 4 : 53 57 157 19 82 119 9 153 87 64 20 120 109 63 182 70 164 187 170 163 
Route 5 : 100 200 97 197 29 129 47 39 139 42 18 118 40 55 147 89 189 155 140 142 28 128 
Route 6 : 45 79 145 85 179 185 4 104 32 132 67 71 48 167 148 171 74 174 
Route 7 : 99 199 11 111 26 15 126 115 
Route 8 : 86 90 190 186 35 38 135 54 154 138 
Route 9 : 98 36 198 136 
Route 10 : 
Route 11 : 
Route 12 : 
Route 13 : 
Route 14 : 
Route 15 : 
Route 16 : 
Route 17 : 
Route 18 : 
Route 19 : 
Route 20 : 
Route 21 : 

--------------------------------------------------------------------------------(Solver execution current time: 25.99742841720581)
[INFO] AGES EXCLUDED
--------------------------------------------------------------------------------(Solver execution current time: 25.999195098876953)
[INFO] Starting LNS
--------------------------------------------------------------------------------(Solver execution current time: 27.337348222732544)
[SOLUTION]
LNS
IT: 40
Exec Time: 1.335153341293335
obj_value: -87; obj_routes: 34624.0
Route 1 : 30 62 69 91 77 22 130 191 51 177 162 1 23 123 12 101 41 122 58 88 52 112 17 158 141 169 188 78 151 49 178 117 152 149 37 137 73 173 
Route 2 : 44 80 180 75 59 159 144 14 175 114 56 46 92 146 72 13 192 156 6 106 84 16 172 116 184 65 113 60 160 165 
Route 3 : 68 168 3 95 195 81 34 103 181 27 127 134 10 110 83 96 196 66 43 143 166 183 
Route 4 : 53 57 157 19 82 119 9 153 87 64 20 120 109 63 182 70 164 187 170 163 
Route 5 : 100 200 97 197 29 129 47 39 139 42 18 118 40 55 147 89 189 155 140 142 
Route 6 : 45 79 145 85 179 185 4 104 
Route 7 : 32 132 
Route 8 : 99 199 11 21 121 111 
Route 9 : 15 115 
Route 10 : 35 38 138 135 54 154 
Route 11 : 28 98 36 198 128 136 67 167 
Route 12 : 48 148 
Route 13 : 90 190 71 74 174 171 
Route 14 : 86 26 186 126 
Route 15 : 
Route 16 : 
Route 17 : 
Route 18 : 
Route 19 : 
Route 20 : 
Route 21 : 

--------------------------------------------------------------------------------(Solver execution current time: 27.340439558029175)
[INFO] Starting PartitionMaxRequestsHF
--------------------------------------------------------------------------------(Solver execution current time: 27.37108826637268)
[SOLUTION]
PartitionMaxRequestsHF
Exec Time: 0.03050851821899414
obj_value: -87; obj_routes: 34624.0
Route 1 : 44 80 180 75 59 159 144 14 175 114 56 46 92 146 72 13 192 156 6 106 84 16 172 116 184 65 113 60 160 165 
Route 2 : 68 168 3 95 195 81 34 103 181 27 127 134 10 110 83 96 196 66 43 143 166 183 
Route 3 : 53 57 157 19 82 119 9 153 87 64 20 120 109 63 182 70 164 187 170 163 
Route 4 : 30 62 69 91 77 22 130 191 51 177 162 1 23 123 12 101 41 122 58 88 52 112 17 158 141 169 188 78 151 49 178 117 152 149 37 137 73 173 
Route 5 : 100 200 97 197 29 129 47 39 139 42 18 118 40 55 147 89 189 155 140 142 
Route 6 : 45 79 145 85 179 185 4 104 
Route 7 : 32 132 
Route 8 : 99 199 11 21 121 111 
Route 9 : 15 115 
Route 10 : 35 38 138 135 54 154 
Route 11 : 28 98 36 198 128 136 67 167 
Route 12 : 48 148 
Route 13 : 90 190 71 74 174 171 
Route 14 : 86 26 186 126 
Route 15 : 
Route 16 : 
Route 17 : 
Route 18 : 
Route 19 : 
Route 20 : 
Route 21 : 

--------------------------------------------------------------------------------(Solver execution current time: 27.373406410217285)
[INFO] Starting OriginalPerturbation
--------------------------------------------------------------------------------(Solver execution current time: 28.33579444885254)
[SOLUTION]
Original Perturbation
Exec Time: 0.9641218185424805
obj_value: -87; obj_routes: 35265.0
Route 1 : 30 62 69 91 77 22 130 191 51 177 162 1 23 123 12 101 41 122 58 88 52 112 17 158 141 169 188 78 151 49 178 117 152 149 37 137 73 173 
Route 2 : 44 80 180 75 59 159 144 14 175 114 56 46 92 146 72 13 192 156 6 106 84 16 172 116 184 65 113 60 160 165 
Route 3 : 68 168 3 95 195 81 34 103 181 27 127 134 10 110 83 96 196 66 43 143 166 183 
Route 4 : 53 57 157 19 82 119 9 153 87 64 20 120 109 63 182 70 164 187 170 163 
Route 5 : 100 200 97 197 29 129 47 39 139 42 18 118 40 55 147 89 189 155 140 142 71 171 
Route 6 : 45 79 145 85 179 185 
Route 7 : 28 36 136 128 
Route 8 : 11 111 90 190 67 167 
Route 9 : 26 21 126 121 
Route 10 : 99 199 35 135 
Route 11 : 86 186 98 198 
Route 12 : 48 148 74 174 
Route 13 : 4 15 104 115 
Route 14 : 32 38 138 132 
Route 15 : 54 154 
Route 16 : 
Route 17 : 
Route 18 : 
Route 19 : 
Route 20 : 
Route 21 : 

--------------------------------------------------------------------------------(Solver execution current time: 28.33913254737854)
[SOLUTION]
SBMath
IT: 3
ITs witout improving: 3
IT time: 2.341704845428467
Time since begin: 14.202561140060425
obj_value: -87; obj_routes: 35265.0
Route 1 : 30 62 69 91 77 22 130 191 51 177 162 1 23 123 12 101 41 122 58 88 52 112 17 158 141 169 188 78 151 49 178 117 152 149 37 137 73 173 
Route 2 : 44 80 180 75 59 159 144 14 175 114 56 46 92 146 72 13 192 156 6 106 84 16 172 116 184 65 113 60 160 165 
Route 3 : 68 168 3 95 195 81 34 103 181 27 127 134 10 110 83 96 196 66 43 143 166 183 
Route 4 : 53 57 157 19 82 119 9 153 87 64 20 120 109 63 182 70 164 187 170 163 
Route 5 : 100 200 97 197 29 129 47 39 139 42 18 118 40 55 147 89 189 155 140 142 71 171 
Route 6 : 45 79 145 85 179 185 
Route 7 : 28 36 136 128 
Route 8 : 11 111 90 190 67 167 
Route 9 : 26 21 126 121 
Route 10 : 99 199 35 135 
Route 11 : 86 186 98 198 
Route 12 : 48 148 74 174 
Route 13 : 4 15 104 115 
Route 14 : 32 38 138 132 
Route 15 : 54 154 
Route 16 : 
Route 17 : 
Route 18 : 
Route 19 : 
Route 20 : 
Route 21 : 

--------------------------------------------------------------------------------(Solver execution current time: 28.33959698677063)
[SOLUTION]
SBMath
IT: 3
ITs witout improving: 3
IT time: 2.341704845428467
Time since begin: 14.202561140060425
obj_value: -87; obj_routes: 32219.0
Route 1 : 30 62 69 91 77 22 130 191 51 177 162 1 23 123 12 101 41 122 58 88 52 112 17 158 141 169 188 78 151 49 178 117 152 149 37 137 73 173 21 121 
Route 2 : 44 80 180 75 59 159 144 14 175 114 56 46 92 146 72 13 192 156 6 106 84 16 172 116 184 65 113 60 160 165 
Route 3 : 68 168 3 95 195 81 34 103 181 27 127 134 10 110 83 96 196 66 43 143 166 183 
Route 4 : 53 57 157 19 82 119 9 153 87 64 20 120 109 63 182 70 164 187 170 163 
Route 5 : 100 200 97 197 29 129 47 39 139 42 18 118 40 55 147 89 189 155 140 142 28 128 
Route 6 : 45 79 145 85 179 185 4 104 32 132 67 71 48 167 148 171 74 174 
Route 7 : 99 199 11 111 26 15 126 115 
Route 8 : 86 90 190 186 35 38 135 54 154 138 
Route 9 : 98 36 198 136 
Route 10 : 
Route 11 : 
Route 12 : 
Route 13 : 
Route 14 : 
Route 15 : 
Route 16 : 
Route 17 : 
Route 18 : 
Route 19 : 
Route 20 : 
Route 21 : 

--------------------------------------------------------------------------------(Solver execution current time: 28.339909315109253)
[INFO] AGES EXCLUDED
--------------------------------------------------------------------------------(Solver execution current time: 28.34179401397705)
[INFO] Starting LNS
--------------------------------------------------------------------------------(Solver execution current time: 29.913979291915894)
[SOLUTION]
LNS
IT: 40
Exec Time: 1.5695343017578125
obj_value: -87; obj_routes: 35265.0
Route 1 : 30 62 69 91 77 22 130 191 51 177 162 1 23 123 12 101 41 122 58 88 52 112 17 158 141 169 188 78 151 49 178 117 152 149 37 137 73 173 
Route 2 : 44 80 180 75 59 159 144 14 175 114 56 46 92 146 72 13 192 156 6 106 84 16 172 116 184 65 113 60 160 165 
Route 3 : 68 168 3 95 195 81 34 103 181 27 127 134 10 110 83 96 196 66 43 143 166 183 
Route 4 : 53 57 157 19 82 119 9 153 87 64 20 120 109 63 182 70 164 187 170 163 
Route 5 : 100 200 97 197 29 129 47 39 139 42 18 118 40 55 147 89 189 155 140 142 71 171 
Route 6 : 45 79 145 85 179 185 
Route 7 : 28 36 136 128 
Route 8 : 11 111 90 190 67 167 
Route 9 : 26 21 126 121 
Route 10 : 99 199 35 135 
Route 11 : 86 186 98 198 
Route 12 : 48 148 74 174 
Route 13 : 4 15 104 115 
Route 14 : 32 38 138 132 
Route 15 : 54 154 
Route 16 : 
Route 17 : 
Route 18 : 
Route 19 : 
Route 20 : 
Route 21 : 

--------------------------------------------------------------------------------(Solver execution current time: 29.917659759521484)
[INFO] Starting PartitionMaxRequestsHF
--------------------------------------------------------------------------------(Solver execution current time: 29.946847915649414)
[SOLUTION]
PartitionMaxRequestsHF
Exec Time: 0.02901434898376465
obj_value: -87; obj_routes: 35265.0
Route 1 : 44 80 180 75 59 159 144 14 175 114 56 46 92 146 72 13 192 156 6 106 84 16 172 116 184 65 113 60 160 165 
Route 2 : 68 168 3 95 195 81 34 103 181 27 127 134 10 110 83 96 196 66 43 143 166 183 
Route 3 : 53 57 157 19 82 119 9 153 87 64 20 120 109 63 182 70 164 187 170 163 
Route 4 : 30 62 69 91 77 22 130 191 51 177 162 1 23 123 12 101 41 122 58 88 52 112 17 158 141 169 188 78 151 49 178 117 152 149 37 137 73 173 
Route 5 : 100 200 97 197 29 129 47 39 139 42 18 118 40 55 147 89 189 155 140 142 71 171 
Route 6 : 45 79 145 85 179 185 
Route 7 : 28 36 136 128 
Route 8 : 11 111 90 190 67 167 
Route 9 : 26 21 126 121 
Route 10 : 99 199 35 135 
Route 11 : 86 186 98 198 
Route 12 : 48 148 74 174 
Route 13 : 4 15 104 115 
Route 14 : 32 38 138 132 
Route 15 : 54 154 
Route 16 : 
Route 17 : 
Route 18 : 
Route 19 : 
Route 20 : 
Route 21 : 

--------------------------------------------------------------------------------(Solver execution current time: 29.949233770370483)
[INFO] Starting OriginalPerturbation
--------------------------------------------------------------------------------(Solver execution current time: 30.011348724365234)
[WARNING] Time Limit Exceeded
--------------------------------------------------------------------------------(Solver execution current time: 30.011475563049316)
[WARNING] Searching current best solution.
--------------------------------------------------------------------------------(Solver execution current time: 30.01377558708191)
[INFO] Algorithm execution time : 30.01456308364868
--------------------------------------------------------------------------------(Solver execution current time: 30.015019416809082)
[SOLUTION]
Final Solution Verification
====================================
Constraints verification: 
Homogenous Capacity Constraint OK
Time Windwos Constraint OK
Pickup and Delivery Constraint OK
Fixed Requests Constraint OK
Limited Fleet Constraint OK
Heterogeneous Fleet Constraint OK
====================================
Obj Func verification: 
SOLUTION COST OK
------------------------------------
ROUTES TOTAL COST OK
------------------------------------
REQUESTS TOTAL COST OK
------------------------------------
OBJECTIVE VALUE: -87
ROUTES VALUE: 32219.0
------------------------------------

Best Solution: 
obj_value: -87; obj_routes: 32219.0
Route 1 : 30 62 69 91 77 22 130 191 51 177 162 1 23 123 12 101 41 122 58 88 52 112 17 158 141 169 188 78 151 49 178 117 152 149 37 137 73 173 21 121 
Route 2 : 44 80 180 75 59 159 144 14 175 114 56 46 92 146 72 13 192 156 6 106 84 16 172 116 184 65 113 60 160 165 
Route 3 : 68 168 3 95 195 81 34 103 181 27 127 134 10 110 83 96 196 66 43 143 166 183 
Route 4 : 53 57 157 19 82 119 9 153 87 64 20 120 109 63 182 70 164 187 170 163 
Route 5 : 100 200 97 197 29 129 47 39 139 42 18 118 40 55 147 89 189 155 140 142 28 128 
Route 6 : 45 79 145 85 179 185 4 104 32 132 67 71 48 167 148 171 74 174 
Route 7 : 99 199 11 111 26 15 126 115 
Route 8 : 86 90 190 186 35 38 135 54 154 138 
Route 9 : 98 36 198 136 
Route 10 : 
Route 11 : 
Route 12 : 
Route 13 : 
Route 14 : 
Route 15 : 
Route 16 : 
Route 17 : 
Route 18 : 
Route 19 : 
Route 20 : 
Route 21 : 

--------------------------------------------------------------------------------